# Solution for model GasLib-40
# Objective value = 1.3652150670557829e+01
loadshed[innode_1] 0
loadshed[innode_2] 0
loadshed[innode_3] 0
loadshed[innode_4] 0
loadshed[innode_5] 0
loadshed[innode_6] 0
loadshed[innode_7] 0
loadshed[innode_8] 0
loadshed[source_1] -2.0826231744713919e-01
loadshed[source_2] -3.8557096707052319e-02
loadshed[source_3] 3.3317608872303472e-01
loadshed[sink_1] 0
loadshed[sink_2] 0
loadshed[sink_3] 0
loadshed[sink_4] 0
loadshed[sink_5] 0
loadshed[sink_6] 0
loadshed[sink_7] 0
loadshed[sink_8] 0
loadshed[sink_9] 0
loadshed[sink_10] 0
loadshed[sink_11] 0
loadshed[sink_12] 8.3478118749907737e-01
loadshed[sink_13] 0
loadshed[sink_14] 0
loadshed[sink_15] 0
loadshed[sink_16] 0
loadshed[sink_17] 0
loadshed[sink_18] 0
loadshed[sink_19] 0
loadshed[sink_20] 0
loadshed[sink_21] 0
loadshed[sink_22] 0
loadshed[sink_23] 0
loadshed[sink_24] 0
loadshed[sink_25] 0
loadshed[sink_26] 0
loadshed[sink_27] 0
loadshed[sink_28] 0
loadshed[sink_29] 0
flow[source_1,sink_3] 1.9101452539363976e+02
flow[innode_1,sink_16] 1.6354166666666970e+01
flow[innode_6,sink_13] 9.0607893040265139e+00
flow[sink_13,sink_14] -7.2933773626401539e+00
flow[sink_14,sink_10] -2.3647544029307255e+01
flow[sink_25,sink_26] 2.3166034932944228e+02
flow[sink_26,sink_9] 1.3051696693207745e+02
flow[sink_9,sink_18] 1.1416280026541078e+02
flow[sink_26,sink_4] 8.4789215730698174e+01
flow[sink_4,sink_20] 2.2781690895312011e+01
flow[sink_18,sink_6] 9.7808633598744109e+01
flow[sink_25,innode_8] -1.5830619206030337e+02
flow[sink_6,sink_7] 4.8746133598743654e+01
flow[sink_6,sink_22] 3.2708333333333641e+01
flow[sink_7,sink_24] 3.5410349329442177e+01
flow[sink_22,sink_1] 1.6354166666666970e+01
flow[sink_24,sink_21] 1.9056182662775509e+01
flow[sink_21,sink_12] 2.70201599610884
flow[sink_7,sink_5] -3.0183823973647605e+00
flow[sink_5,sink_17] -1.9372549064031432e+01
flow[sink_17,sink_4] -4.5653358168719478e+01
flow[sink_17,sink_8] 9.9266424380213039e+00
flow[sink_3,sink_23] 16.3541666666697
flow[sink_8,sink_20] -6.4275242286453249e+00
flow[sink_25,sink_20] 0
flow[sink_25,sink_15] -9.8769113239832450e+01
flow[sink_15,sink_29] -6.4020464246492281e+01
flow[sink_29,sink_28] 1.6354166666667879e+01
flow[sink_29,sink_2] 6.7456982326673483e+01
flow[sink_2,sink_15] 5.1102815660006854e+01
flow[sink_29,innode_7] -1.6418577990650033e+02
flow[innode_4,sink_19] 4.0292728998808684e+01
flow[sink_19,innode_3] 7.2710044029307255e+01
flow[innode_4,innode_5] 6.5125648363831033e+01
flow[sink_27,innode_5] -6.5125648363831033e+01
flow[sink_27,sink_19] 4.8771481697164290e+01
flow[sink_10,sink_11] 3.2708333333333641e+01
flow[sink_10,innode_2] 0
flow[sink_10,innode_3] -7.2710044029307255e+01
flow[innode_6,sink_25] -9.0607893040265139e+00
flow[sink_11,innode_1] 1.6354166666666970e+01
flow[sink_19,innode_2] 0
flow[source_3,innode_4] 1.0541837736263969e+02
flow[source_2,innode_7] 1.6418577990650033e+02
flow[sink_3,innode_8] 1.5830619206030337e+02
pressure[innode_1] 7.5197092043346387e+01
pressure[innode_2] 7.5348793350949933e+01
pressure[innode_3] 7.9219880722816015e+01
pressure[innode_4] 81.01325
pressure[innode_5] 8.0968453144969288e+01
pressure[innode_6] 7.4267196220153778e+01
pressure[innode_7] 81.01325
pressure[innode_8] 8.0374761411802638e+01
pressure[source_1] 81.01325
pressure[source_2] 81.01325
pressure[source_3] 81.01325
pressure[sink_1] 4.1296106818243210e+01
pressure[sink_2] 7.4913162092398238e+01
pressure[sink_3] 8.0374761411802638e+01
pressure[sink_4] 47.1711735311721
pressure[sink_5] 4.3983337842795123e+01
pressure[sink_6] 4.3397184428630581e+01
pressure[sink_7] 4.2728016207516333e+01
pressure[sink_8] 4.5051894711289449e+01
pressure[sink_9] 5.0139716537555877e+01
pressure[sink_10] 7.5348793350949933e+01
pressure[sink_11] 7.5197092043346387e+01
pressure[sink_12] 1.01325
pressure[sink_13] 7.4217245602919235e+01
pressure[sink_14] 7.4230297722968047e+01
pressure[sink_15] 7.4746322662147477e+01
pressure[sink_16] 7.4175442208528708e+01
pressure[sink_17] 4.5426452719258890e+01
pressure[sink_18] 4.6008966160289731e+01
pressure[sink_19] 7.9380888881799621e+01
pressure[sink_20] 4.5499802758010674e+01
pressure[sink_21] 1.9747751733270245e+00
pressure[sink_22] 4.2359875960598217e+01
pressure[sink_23] 8.0210043400142851e+01
pressure[sink_24] 2.1858046910119935e+00
pressure[sink_25] 7.4267196220153778e+01
pressure[sink_26] 5.7951493863459739e+01
pressure[sink_27] 80.4280306028083
pressure[sink_28] 7.6326641310937759e+01
pressure[sink_29] 7.6621923584554935e+01
interdiction[source_1,sink_3] 0
interdiction[innode_1,sink_16] 0
interdiction[innode_6,sink_13] 0
interdiction[sink_13,sink_14] 0
interdiction[sink_14,sink_10] 0
interdiction[sink_25,sink_26] 0
interdiction[sink_26,sink_9] 0
interdiction[sink_9,sink_18] 0
interdiction[sink_26,sink_4] 0
interdiction[sink_4,sink_20] 0
interdiction[sink_18,sink_6] 0
interdiction[sink_25,innode_8] 0
interdiction[sink_6,sink_7] 0
interdiction[sink_6,sink_22] 0
interdiction[sink_7,sink_24] 0
interdiction[sink_22,sink_1] 0
interdiction[sink_24,sink_21] 0
interdiction[sink_21,sink_12] 0
interdiction[sink_7,sink_5] 0
interdiction[sink_5,sink_17] 0
interdiction[sink_17,sink_4] 0
interdiction[sink_17,sink_8] 0
interdiction[sink_3,sink_23] 0
interdiction[sink_8,sink_20] 0
interdiction[sink_25,sink_20] 1
interdiction[sink_25,sink_15] 0
interdiction[sink_15,sink_29] 0
interdiction[sink_29,sink_28] 0
interdiction[sink_29,sink_2] 0
interdiction[sink_2,sink_15] 0
interdiction[sink_29,innode_7] 0
interdiction[innode_4,sink_19] 0
interdiction[sink_19,innode_3] 0
interdiction[innode_4,innode_5] 0
interdiction[sink_27,innode_5] 0
interdiction[sink_27,sink_19] 0
interdiction[sink_10,sink_11] 0
interdiction[sink_10,innode_2] 0
interdiction[sink_10,innode_3] 0
interdiction[innode_6,sink_25] 0
interdiction[sink_11,innode_1] 0
interdiction[sink_19,innode_2] 1
interdiction[source_3,innode_4] 0
interdiction[source_2,innode_7] 0
interdiction[sink_3,innode_8] 0
WCcheckFlow[source_1,sink_3] 39
WCcheckFlow[innode_1,sink_16] 1
WCcheckFlow[innode_6,sink_13] 13
WCcheckFlow[sink_13,sink_14] 12
WCcheckFlow[sink_14,sink_10] 11
WCcheckFlow[sink_25,sink_26] 15
WCcheckFlow[sink_26,sink_9] 12
WCcheckFlow[sink_9,sink_18] 11
WCcheckFlow[sink_26,sink_4] 2
WCcheckFlow[sink_4,sink_20] 1
WCcheckFlow[sink_18,sink_6] 10
WCcheckFlow[sink_25,innode_8] -36
WCcheckFlow[sink_6,sink_7] 7
WCcheckFlow[sink_6,sink_22] 2
WCcheckFlow[sink_7,sink_24] 3
WCcheckFlow[sink_22,sink_1] 1
WCcheckFlow[sink_24,sink_21] 2
WCcheckFlow[sink_21,sink_12] 1
WCcheckFlow[sink_7,sink_5] 3
WCcheckFlow[sink_5,sink_17] 2
WCcheckFlow[sink_17,sink_4] 0
WCcheckFlow[sink_17,sink_8] 1
WCcheckFlow[sink_3,sink_23] 1
WCcheckFlow[sink_8,sink_20] 0
WCcheckFlow[sink_25,sink_20] 0
WCcheckFlow[sink_25,sink_15] 6
WCcheckFlow[sink_15,sink_29] 5
WCcheckFlow[sink_29,sink_28] 1
WCcheckFlow[sink_29,sink_2] 1
WCcheckFlow[sink_2,sink_15] 0
WCcheckFlow[sink_29,innode_7] 2
WCcheckFlow[innode_4,sink_19] -4
WCcheckFlow[sink_19,innode_3] -5
WCcheckFlow[innode_4,innode_5] 2
WCcheckFlow[sink_27,innode_5] -1
WCcheckFlow[sink_27,sink_19] 0
WCcheckFlow[sink_10,sink_11] 3
WCcheckFlow[sink_10,innode_2] 1
WCcheckFlow[sink_10,innode_3] 6
WCcheckFlow[innode_6,sink_25] -14
WCcheckFlow[sink_11,innode_1] 2
WCcheckFlow[sink_19,innode_2] 0
WCcheckFlow[source_3,innode_4] -1
WCcheckFlow[source_2,innode_7] -1
WCcheckFlow[sink_3,innode_8] 37
